Selected objective sense:  MINIMIZE
Selected objective  name:  OBJ
Selected RHS        name:  RHS1
Selected bound      name:  BND1
CPXPARAM_Preprocessing_Presolve                  0
CPXPARAM_LPMethod                                4
CPXPARAM_Threads                                 1
CPXPARAM_SolutionType                            2
CPXPARAM_TimeLimit                               3600
Tried aggregator 0 times.
Reduced presolve eliminated 26 rows and 26 columns.
Reduced LP has 2046 rows, 12126 columns, and 270905 nonzeros.
Presolve time = 0.03 sec. (32.13 ticks)
Parallel mode: none, using 1 thread for barrier
Number of nonzeros in lower triangle of A*A' = 46304
Using Approximate Minimum Degree ordering
Total time for automatic ordering = 0.01 sec. (10.10 ticks)
Summary statistics for Cholesky factor:
  Rows in Factor            = 2046
  Integer space required    = 47522
  Total non-zeros in factor = 48603
  Total FP ops to factor    = 1177075
 Itn      Primal Obj        Dual Obj  Prim Inf Upper Inf  Dual Inf Inf Ratio
   0   1.1160420e+08  -8.5154372e+05  5.38e+07  0.00e+00  2.60e+05  1.00e+00
   1   8.2651551e+06  -2.2057317e+05  3.75e+06  3.50e-12  1.41e+05  7.19e-03
   2   5.0944567e+05  -7.5651686e+04  2.59e+05  1.47e-12  9.83e+03  7.04e-02
   3   4.6158193e+03  -3.7528817e+04  1.43e+04  4.92e-12  2.45e+03  3.15e-01
   4   3.0726508e+03   8.1945661e+02  5.15e+02  7.19e-12  1.33e+02  2.17e+00
   5   3.0634769e+03   2.2145654e+03  4.83e+02  4.98e-12  4.50e+01  1.01e+01
   6   2.9501141e+03   2.6993968e+03  8.18e+01  2.70e-12  1.44e+01  3.43e+01
   7   2.9297433e+03   2.8499803e+03  4.59e+01  1.84e-12  3.78e+00  1.82e+02
   8   2.9172325e+03   2.8786733e+03  2.21e+01  4.25e-12  1.83e+00  3.59e+02
   9   2.9160308e+03   2.8948740e+03  1.99e+01  2.77e-12  6.97e-01  9.02e+02
  10   2.9135175e+03   2.8988095e+03  1.60e+01  2.58e-12  3.67e-01  1.51e+03
  11   2.9115429e+03   2.9013077e+03  1.29e+01  2.32e-12  1.68e-01  2.63e+03
  12   2.9085968e+03   2.9029937e+03  7.97e+00  2.19e-12  5.57e-02  5.44e+03
  13   2.9073173e+03   2.9036343e+03  5.76e+00  6.63e-12  1.97e-02  8.96e+03
  14   2.9065210e+03   2.9039668e+03  4.34e+00  4.72e-12  4.93e-03  1.55e+04
  15   2.9055720e+03   2.9041875e+03  2.54e+00  2.13e-12  8.29e-04  3.38e+04
  16   2.9053939e+03   2.9042618e+03  2.19e+00  3.71e-12  1.52e-04  5.78e+04
  17   2.9051128e+03   2.9042886e+03  1.61e+00  1.89e-12  9.77e-05  8.22e+04
  18   2.9050410e+03   2.9042914e+03  1.47e+00  3.26e-12  2.44e-05  7.23e+04
  19   2.9048777e+03   2.9043132e+03  1.13e+00  2.88e-12  7.44e-06  1.09e+05
  20   2.9048067e+03   2.9043126e+03  9.92e-01  2.66e-12  1.86e-06  1.06e+05
  21   2.9045009e+03   2.9043272e+03  3.49e-01  4.06e-12  6.38e-07  1.56e+05
  22   2.9044975e+03   2.9043307e+03  3.41e-01  2.23e-12  5.63e-07  1.71e+05
  23   2.9044937e+03   2.9043403e+03  3.32e-01  2.11e-12  2.25e-07  2.96e+05
  24   2.9044373e+03   2.9043422e+03  2.03e-01  2.40e-12  1.72e-07  3.22e+05
  25   2.9044291e+03   2.9043481e+03  1.83e-01  3.35e-12  7.85e-08  5.07e+05
  26   2.9044284e+03   2.9043485e+03  1.82e-01  2.84e-12  7.10e-08  5.30e+05
  27   2.9044278e+03   2.9043487e+03  1.80e-01  3.36e-12  6.90e-08  5.36e+05
  28   2.9044141e+03   2.9043502e+03  1.48e-01  2.97e-12  3.48e-08  6.77e+05
  29   2.9044084e+03   2.9043529e+03  1.34e-01  3.52e-12  7.23e-09  1.18e+06
  30   2.9043981e+03   2.9043530e+03  1.09e-01  3.32e-12  1.84e-09  1.13e+06
  31   2.9043928e+03   2.9043535e+03  9.59e-02  7.49e-12  1.02e-09  1.28e+06
  32   2.9043828e+03   2.9043545e+03  7.06e-02  2.32e-12  3.01e-10  1.75e+06
  33   2.9043821e+03   2.9043547e+03  6.88e-02  5.14e-12  2.31e-10  1.87e+06
  34   2.9043818e+03   2.9043551e+03  6.80e-02  3.25e-12  8.44e-11  2.32e+06
  35   2.9043709e+03   2.9043551e+03  4.00e-02  5.80e-12  1.36e-10  2.34e+06
  36   2.9043706e+03   2.9043552e+03  3.94e-02  2.88e-12  1.44e-10  2.49e+06
  37   2.9043699e+03   2.9043553e+03  3.73e-02  2.54e-12  8.06e-11  2.75e+06
  38   2.9043665e+03   2.9043559e+03  2.83e-02  5.53e-12  4.27e-11  4.42e+06
  39   2.9043653e+03   2.9043562e+03  2.50e-02  3.31e-12  5.28e-11  6.50e+06
  40   2.9043627e+03   2.9043562e+03  1.76e-02  1.92e-12  4.47e-11  6.93e+06
  41   2.9043615e+03   2.9043564e+03  1.44e-02  3.64e-12  4.43e-11  9.36e+06
  42   2.9043577e+03   2.9043564e+03  2.89e-03  1.35e-12  6.00e-11  9.90e+06
  43   2.9043572e+03   2.9043566e+03  9.98e-04  7.01e-12  3.75e-11  1.79e+07
  44   2.9043571e+03   2.9043567e+03  8.22e-04  3.94e-12  5.29e-11  2.82e+07
  45   2.9043569e+03   2.9043567e+03  2.06e-04  4.15e-12  5.29e-11  3.45e+07
  46   2.9043569e+03   2.9043567e+03  1.49e-04  1.92e-12  2.80e-11  3.95e+07
  47   2.9043569e+03   2.9043568e+03  1.45e-04  3.55e-12  2.59e-11  4.03e+07
  48   2.9043569e+03   2.9043568e+03  5.98e-05  3.46e-12  4.71e-11  1.99e+08
Barrier time = 0.45 sec. (1194.56 ticks)

Total time on 1 threads = 0.45 sec. (1194.56 ticks)
Solve time: 0.447721757
Barrier iterations: 48
